WARNING: for repeatability, setting FPU to use double precision
============================[ Problem Statistics ]=============================
|                                                                             |
|  Number of variables:          4351                                         |
|  Number of clauses:           31815                                         |
|  Parse time:                   0.03 s                                       |
|  Eliminated clauses:           0.01 Mb                                      |
|  Simplification time:          0.01 s                                       |
|                                                                             |
============================[ Search Statistics ]==============================
| Conflicts |          ORIGINAL         |          LEARNT          | Progress |
|           |    Vars  Clauses Literals |    Limit  Clauses Lit/Cl |          |
===============================================================================
|       100 |     693     5238    14261 |     1920      100     19 | 75.178 % |
===============================================================================
restarts              : 3
conflicts             : 204            (4785 /sec)
decisions             : 840            (0.00 % random) (19704 /sec)
propagations          : 12687          (297607 /sec)
conflict literals     : 6129           (5.66 % deleted)
Memory used           : 23.00 MB
CPU time              : 0.04263 s

SATISFIABLE
WARNING: for repeatability, setting FPU to use double precision
============================[ Problem Statistics ]=============================
|                                                                             |
|  Number of variables:          4351                                         |
|  Number of clauses:           31815                                         |
|  Parse time:                   0.01 s                                       |
|  Eliminated clauses:           0.01 Mb                                      |
|  Simplification time:          0.01 s                                       |
|                                                                             |
============================[ Search Statistics ]==============================
| Conflicts |          ORIGINAL         |          LEARNT          | Progress |
|           |    Vars  Clauses Literals |    Limit  Clauses Lit/Cl |          |
===============================================================================
|       100 |     693     5238    14261 |     1920      100     19 | 75.178 % |
===============================================================================
restarts              : 3
conflicts             : 204            (8531 /sec)
decisions             : 840            (0.00 % random) (35126 /sec)
propagations          : 12687          (530526 /sec)
conflict literals     : 6129           (5.66 % deleted)
Memory used           : 23.00 MB
CPU time              : 0.023914 s

SATISFIABLE
